Geometry = GenFormat {
12  C
C  H
1 1      0.00000000      0.41727209      1.34035331
2 1      0.00000000      1.36277581      0.31264346
3 1      0.00000000      0.94549248     -1.02003049
4 1      0.00000000     -0.41727209     -1.32501204
5 1      0.00000000     -1.36277581     -0.29730219
6 1      0.00000000     -0.94549248      1.03537176
7 2      0.00000000      0.74550740      2.38862741
8 2      0.00000000      2.43471932      0.55254238
9 2      0.00000000      1.68922144     -1.82842183
10 2      0.00000000     -0.74550739     -2.37328614
11 2      0.00000000     -2.43471932     -0.53720110
12 2      0.00000000     -1.68922144      1.84376309
}
Driver = {}
Hamiltonian = DFTB {
  SCC = Yes
  SCCTolerance = 1.0E-10
  MaxAngularMomentum = {
    C = "p"
    H = "s"
  }
  Charge = 0.0
  Filling = Fermi {
    Temperature [Kelvin] = 273.15
  }
  SlaterKosterFiles = Type2FileNames {
    Prefix = /home/matias/Documents/GitHub/proyecto_MPI/dftbplus/external/slakos/origin/mio-1-1/
    Separator = "-"
    Suffix = ".skf"
    LowerCaseTypeName = No
  }
  PolynomialRepulsive = {}
  ShellResolvedSCC = No
  OldSKInterpolation = No
  ReadInitialCharges = No
  InitialCharges = {}
  ConvergentSCCOnly = Yes
  HCorrection = None {}
  SpinPolarisation = {}
  ElectricField = {}
  Solver = RelativelyRobust {}
  MaxSCCIterations = 100
  OnSiteCorrection = {}
  Dispersion = {}
  Solvation = {}
  ElectronicConstraints = {}
  Electrostatics = GammaFunctional {}
  ThirdOrder = No
  ThirdOrderFull = No
  Differentiation = FiniteDiff {
    Delta = 1.2207031250000000E-004
  }
  ForceEvaluation = "Traditional"
  Mixer = Broyden {
    MixingParameter = 0.20000000000000001
    InverseJacobiWeight = 1.0000000000000000E-002
    MinimalWeight = 1.0000000000000000
    MaximalWeight = 100000.00000000000
    WeightFactor = 1.0000000000000000E-002
  }
}
Options = {
  WriteAutotestTag = Yes
  WriteDetailedOut = Yes
  WriteDetailedXML = No
  WriteResultsTag = No
  RestartFrequency = 20
  RandomSeed = 0
  WriteHS = No
  WriteRealHS = No
  MinimiseMemoryUsage = No
  ShowFoldedCoords = No
  TimingVerbosity = 1
  WriteCharges = Yes
  WriteChargesAsText = No
  BinaryAccessTypes = {
 "stream"
  }
}
ElectronDynamics = {
  Steps = 2000
  TimeStep [au] = 0.2
  Perturbation = Laser {
    PolarizationDirection = {
0.0 1.0 1.0
    }
    LaserEnergy [eV] = 6.795
    ImagPolarisationDirection = {
 0.0000000000000000 0.0000000000000000 0.0000000000000000
    }
    Phase = 0.0000000000000000
    ExcitedAtoms = "1:-1"
  }
  EnvelopeShape = Sin2 {
    Time0 [fs] = 4.0
    Time1 [fs] = 10.0
  }
  FieldStrength [v/a] = 0.01
  Populations = No
  WriteFrequency = 50
  Restart = No
  WriteRestart = Yes
  WriteAsciiRestart = No
  RestartFrequency = 200
  Forces = No
  WriteBondEnergy = No
  WriteBondPopulation = No
  WriteAtomicEnergies = No
  Pump = No
  FillingsFromFile = No
  Probe = No
  EulerFrequency = 0
  WriteEnergyAndCharges = Yes
  IonDynamics = No
}
Parallel = {
  UseOmpThreads = Yes
  Blacs = BlockSize {
16
  }
  Groups = 1
}
ParserOptions = {
  ParserVersion = 14
  WriteHSDInput = Yes
  StopAfterParsing = No
  IgnoreUnprocessedNodes = No
}
Reks = None {}
Analysis = {
  ProjectStates = {}
  WriteEigenvectors = No
  WriteBandOut = Yes
  MullikenAnalysis = Yes
  WriteNetCharges = No
  AtomResolvedEnergies = No
  PrintForces = No
}
ExcitedState = {}
